; DUP3 ADD DUP3 SWAP1 LT => DUP3 NOT LT
(set-option :produce-proofs true)
; 
(set-info :status unknown)
(declare-fun storage_t ((_ BitVec 256) (_ BitVec 256) (_ BitVec 256) Int (_ BitVec 256)) (_ BitVec 256))
(declare-fun storage_s ((_ BitVec 256) (_ BitVec 256) (_ BitVec 256) Int (_ BitVec 256)) (_ BitVec 256))
(declare-fun exc_halt_t (Int) Bool)
(declare-fun exc_halt_s (Int) Bool)
(declare-fun stack_t ((_ BitVec 256) (_ BitVec 256) (_ BitVec 256) Int (_ BitVec 6)) (_ BitVec 256))
(declare-fun stack_s ((_ BitVec 256) (_ BitVec 256) (_ BitVec 256) Int (_ BitVec 6)) (_ BitVec 256))
(declare-fun sc_t (Int) (_ BitVec 6))
(declare-fun sc_s (Int) (_ BitVec 6))
(declare-fun used_gas_t ((_ BitVec 256) (_ BitVec 256) (_ BitVec 256) Int) Int)
(declare-fun used_gas_s ((_ BitVec 256) (_ BitVec 256) (_ BitVec 256) Int) Int)
(assert
 (exists ((x_0 (_ BitVec 256)) (x_1 (_ BitVec 256)) (x_2 (_ BitVec 256)) )(let (($x11638 (forall ((w (_ BitVec 256)) )(let ((?x6987 (storage_t x_0 x_1 x_2 3 w)))
 (let ((?x1167 (storage_s x_0 x_1 x_2 5 w)))
 (= ?x1167 ?x6987))))
 ))
 (let (($x1097 (exc_halt_t 3)))
 (let (($x3979 (exc_halt_s 5)))
 (let (($x8098 (= $x3979 $x1097)))
 (let (($x11014 (forall ((n (_ BitVec 6)) )(let ((?x10065 (stack_t x_0 x_1 x_2 3 n)))
 (let ((?x6014 (stack_s x_0 x_1 x_2 5 n)))
 (let (($x5660 (= ?x6014 ?x10065)))
 (let ((?x6011 (sc_t 3)))
 (let (($x3595 (bvsle ?x6011 n)))
 (or $x3595 $x5660)))))))
 ))
 (let ((?x6011 (sc_t 3)))
 (let ((?x805 (sc_s 5)))
 (let (($x6835 (= ?x805 ?x6011)))
 (let ((?x28 (used_gas_t x_0 x_1 x_2 0)))
 (let ((?x10069 (used_gas_s x_0 x_1 x_2 0)))
 (let (($x2569 (= ?x10069 ?x28)))
 (let (($x2734 (forall ((w (_ BitVec 256)) )(let ((?x2967 (storage_t x_0 x_1 x_2 0 w)))
 (let ((?x3121 (storage_s x_0 x_1 x_2 0 w)))
 (= ?x3121 ?x2967))))
 ))
 (let (($x56 (exc_halt_t 0)))
 (let (($x57 (exc_halt_s 0)))
 (let (($x58 (= $x57 $x56)))
 (let (($x289 (forall ((n (_ BitVec 6)) )(let ((?x10683 (stack_t x_0 x_1 x_2 0 n)))
 (let ((?x4278 (stack_s x_0 x_1 x_2 0 n)))
 (let (($x8988 (= ?x4278 ?x10683)))
 (let ((?x63 (sc_t 0)))
 (let (($x5025 (bvsle ?x63 n)))
 (or $x5025 $x8988)))))))
 ))
 (let ((?x63 (sc_t 0)))
 (let ((?x72 (sc_s 0)))
 (let (($x73 (= ?x72 ?x63)))
 (let (($x6746 (= $x1097 (or (exc_halt_t 2) (not (bvsle (_ bv0 6) (bvadd (_ bv62 6) (sc_t 2))))))))
 (let (($x4460 (forall ((w (_ BitVec 256)) )(let ((?x5156 (storage_t x_0 x_1 x_2 2 w)))
 (let ((?x6987 (storage_t x_0 x_1 x_2 3 w)))
 (= ?x6987 ?x5156))))
 ))
 (let (($x3287 (forall ((n (_ BitVec 6)) )(let ((?x2714 (sc_t 2)))
 (let ((?x3738 (bvadd (_ bv62 6) ?x2714)))
 (let (($x11451 (bvsle ?x3738 n)))
 (let ((?x5294 (stack_t x_0 x_1 x_2 2 n)))
 (let ((?x10065 (stack_t x_0 x_1 x_2 3 n)))
 (or (= ?x10065 ?x5294) $x11451)))))))
 ))
 (let ((?x2714 (sc_t 2)))
 (let ((?x270 (bvadd (_ bv63 6) ?x2714)))
 (let (($x2790 (= ?x6011 ?x270)))
 (let (($x8374 (= (used_gas_t x_0 x_1 x_2 3) (+ 3 (used_gas_t x_0 x_1 x_2 2)))))
 (let ((?x2277 (stack_t x_0 x_1 x_2 2 ?x270)))
 (let ((?x2957 (ite (bvule (stack_t x_0 x_1 x_2 2 (bvadd (_ bv62 6) ?x2714)) ?x2277) (_ bv0 256) (_ bv1 256))))
 (let (($x5252 (exc_halt_t 2)))
 (let (($x10333 (= $x5252 (or (exc_halt_t 1) (not (bvsle (_ bv0 6) (bvadd (_ bv63 6) (sc_t 1))))))))
 (let (($x8043 (forall ((w (_ BitVec 256)) )(let ((?x7214 (storage_t x_0 x_1 x_2 1 w)))
 (let ((?x5156 (storage_t x_0 x_1 x_2 2 w)))
 (= ?x5156 ?x7214))))
 ))
 (let (($x3167 (forall ((n (_ BitVec 6)) )(let ((?x11577 (stack_t x_0 x_1 x_2 1 n)))
 (let ((?x5294 (stack_t x_0 x_1 x_2 2 n)))
 (or (bvsle (bvadd (_ bv63 6) (sc_t 1)) n) (= ?x5294 ?x11577)))))
 ))
 (let ((?x11507 (used_gas_t x_0 x_1 x_2 2)))
 (let (($x9687 (= ?x2277 (bvnot (stack_t x_0 x_1 x_2 1 (bvadd (_ bv63 6) (sc_t 1)))))))
 (let (($x6067 (not (= ((_ extract 6 6) (bvadd (_ bv1 7) (concat (_ bv0 1) ?x63))) (_ bv0 1)))))
 (let (($x3120 (exc_halt_t 1)))
 (let (($x5419 (forall ((w (_ BitVec 256)) )(let ((?x2967 (storage_t x_0 x_1 x_2 0 w)))
 (let ((?x7214 (storage_t x_0 x_1 x_2 1 w)))
 (= ?x7214 ?x2967))))
 ))
 (let (($x439 (forall ((n (_ BitVec 6)) )(let ((?x10683 (stack_t x_0 x_1 x_2 0 n)))
 (let ((?x11577 (stack_t x_0 x_1 x_2 1 n)))
 (or (bvsle (bvadd (_ bv61 6) (sc_t 0)) n) (= ?x11577 ?x10683)))))
 ))
 (let ((?x6052 (sc_t 1)))
 (let (($x4139 (= ?x6052 (bvadd (_ bv1 6) ?x63))))
 (let (($x25 (= (stack_t x_0 x_1 x_2 1 (bvadd (_ bv63 6) ?x63)) (stack_t x_0 x_1 x_2 0 (bvadd (_ bv63 6) ?x63)))))
 (let (($x7276 (= (stack_t x_0 x_1 x_2 1 (bvadd (_ bv62 6) ?x63)) (stack_t x_0 x_1 x_2 0 (bvadd (_ bv62 6) ?x63)))))
 (let ((?x2447 (bvadd (_ bv61 6) ?x63)))
 (let ((?x6794 (stack_t x_0 x_1 x_2 0 ?x2447)))
 (let (($x1289 (= $x3979 (or (exc_halt_s 4) (not (bvsle (_ bv0 6) (bvadd (_ bv62 6) (sc_s 4))))))))
 (let (($x4591 (forall ((w (_ BitVec 256)) )(let ((?x1707 (storage_s x_0 x_1 x_2 4 w)))
 (let ((?x1167 (storage_s x_0 x_1 x_2 5 w)))
 (= ?x1167 ?x1707))))
 ))
 (let (($x6844 (forall ((n (_ BitVec 6)) )(let ((?x4305 (sc_s 4)))
 (let ((?x5391 (bvadd (_ bv62 6) ?x4305)))
 (let (($x5921 (bvsle ?x5391 n)))
 (let ((?x9130 (stack_s x_0 x_1 x_2 4 n)))
 (let ((?x6014 (stack_s x_0 x_1 x_2 5 n)))
 (or (= ?x6014 ?x9130) $x5921)))))))
 ))
 (let ((?x4305 (sc_s 4)))
 (let ((?x1110 (bvadd (_ bv63 6) ?x4305)))
 (let (($x3594 (= ?x805 ?x1110)))
 (let (($x6329 (= (used_gas_s x_0 x_1 x_2 5) (+ 3 (used_gas_s x_0 x_1 x_2 4)))))
 (let ((?x6990 (stack_s x_0 x_1 x_2 4 ?x1110)))
 (let ((?x5391 (bvadd (_ bv62 6) ?x4305)))
 (let ((?x1580 (stack_s x_0 x_1 x_2 4 ?x5391)))
 (let (($x4033 (= (stack_s x_0 x_1 x_2 5 (bvadd (_ bv63 6) ?x805)) (ite (bvule ?x1580 ?x6990) (_ bv0 256) (_ bv1 256)))))
 (let (($x7172 (exc_halt_s 4)))
 (let (($x8182 (= $x7172 (or (exc_halt_s 3) (not (bvsle (_ bv0 6) (bvadd (_ bv62 6) (sc_s 3))))))))
 (let (($x890 (forall ((w (_ BitVec 256)) )(let ((?x5503 (storage_s x_0 x_1 x_2 3 w)))
 (let ((?x1707 (storage_s x_0 x_1 x_2 4 w)))
 (= ?x1707 ?x5503))))
 ))
 (let (($x8922 (forall ((n (_ BitVec 6)) )(let ((?x1268 (stack_s x_0 x_1 x_2 3 n)))
 (let ((?x9130 (stack_s x_0 x_1 x_2 4 n)))
 (let ((?x275 (sc_s 3)))
 (let ((?x7283 (bvadd (_ bv62 6) ?x275)))
 (let (($x49 (bvsle ?x7283 n)))
 (or $x49 (= ?x9130 ?x1268))))))))
 ))
 (let ((?x275 (sc_s 3)))
 (let (($x5056 (= ?x4305 ?x275)))
 (let ((?x9653 (used_gas_s x_0 x_1 x_2 4)))
 (let (($x8482 (not (= ((_ extract 6 6) (bvadd (_ bv1 7) (concat (_ bv0 1) (sc_s 2)))) (_ bv0 1)))))
 (let (($x247 (exc_halt_s 2)))
 (let (($x292 (exc_halt_s 3)))
 (let (($x9785 (forall ((w (_ BitVec 256)) )(let ((?x20 (storage_s x_0 x_1 x_2 2 w)))
 (let ((?x5503 (storage_s x_0 x_1 x_2 3 w)))
 (= ?x5503 ?x20))))
 ))
 (let (($x9180 (forall ((n (_ BitVec 6)) )(let ((?x491 (stack_s x_0 x_1 x_2 2 n)))
 (let ((?x1268 (stack_s x_0 x_1 x_2 3 n)))
 (or (= ?x1268 ?x491) (bvsle (bvadd (_ bv61 6) (sc_s 2)) n)))))
 ))
 (let (($x2652 (= ?x275 (bvadd (_ bv1 6) (sc_s 2)))))
 (let ((?x1882 (used_gas_s x_0 x_1 x_2 3)))
 (let ((?x218 (sc_s 2)))
 (let ((?x5148 (bvadd (_ bv63 6) ?x218)))
 (let ((?x10383 (stack_s x_0 x_1 x_2 2 ?x5148)))
 (let (($x10822 (= (stack_s x_0 x_1 x_2 3 (bvadd (_ bv62 6) ?x218)) (stack_s x_0 x_1 x_2 2 (bvadd (_ bv62 6) ?x218)))))
 (let ((?x1775 (bvadd (_ bv61 6) ?x218)))
 (let ((?x50 (stack_s x_0 x_1 x_2 2 ?x1775)))
 (let (($x3125 (= $x247 (or (exc_halt_s 1) (not (bvsle (_ bv0 6) (bvadd (_ bv62 6) (sc_s 1))))))))
 (let (($x10998 (forall ((w (_ BitVec 256)) )(let ((?x6205 (storage_s x_0 x_1 x_2 1 w)))
 (let ((?x20 (storage_s x_0 x_1 x_2 2 w)))
 (= ?x20 ?x6205))))
 ))
 (let (($x11103 (forall ((n (_ BitVec 6)) )(let ((?x2520 (stack_s x_0 x_1 x_2 1 n)))
 (let ((?x491 (stack_s x_0 x_1 x_2 2 n)))
 (let ((?x154 (sc_s 1)))
 (let ((?x7504 (bvadd (_ bv62 6) ?x154)))
 (let (($x10307 (bvsle ?x7504 n)))
 (or $x10307 (= ?x491 ?x2520))))))))
 ))
 (let ((?x154 (sc_s 1)))
 (let ((?x9976 (bvadd (_ bv63 6) ?x154)))
 (let (($x10523 (= ?x218 ?x9976)))
 (let ((?x566 (used_gas_s x_0 x_1 x_2 2)))
 (let ((?x3110 (stack_s x_0 x_1 x_2 1 ?x9976)))
 (let (($x11049 (= ?x10383 (bvadd ?x3110 (stack_s x_0 x_1 x_2 1 (bvadd (_ bv62 6) ?x154))))))
 (let (($x2693 (not (= ((_ extract 6 6) (bvadd (_ bv1 7) (concat (_ bv0 1) ?x72))) (_ bv0 1)))))
 (let (($x189 (exc_halt_s 1)))
 (let (($x1596 (forall ((w (_ BitVec 256)) )(let ((?x3121 (storage_s x_0 x_1 x_2 0 w)))
 (let ((?x6205 (storage_s x_0 x_1 x_2 1 w)))
 (= ?x6205 ?x3121))))
 ))
 (let (($x6792 (forall ((n (_ BitVec 6)) )(let ((?x4278 (stack_s x_0 x_1 x_2 0 n)))
 (let ((?x2520 (stack_s x_0 x_1 x_2 1 n)))
 (or (bvsle (bvadd (_ bv61 6) (sc_s 0)) n) (= ?x2520 ?x4278)))))
 ))
 (let (($x7749 (= ?x154 (bvadd (_ bv1 6) ?x72))))
 (let (($x7759 (= (stack_s x_0 x_1 x_2 1 (bvadd (_ bv63 6) ?x72)) (stack_s x_0 x_1 x_2 0 (bvadd (_ bv63 6) ?x72)))))
 (let (($x4710 (= (stack_s x_0 x_1 x_2 1 (bvadd (_ bv62 6) ?x72)) (stack_s x_0 x_1 x_2 0 (bvadd (_ bv62 6) ?x72)))))
 (let ((?x6241 (bvadd (_ bv61 6) ?x72)))
 (let ((?x8662 (stack_s x_0 x_1 x_2 0 ?x6241)))
 (let (($x9516 (forall ((w (_ BitVec 256)) )(let ((?x3121 (storage_s x_0 x_1 x_2 0 w)))
 (= ?x3121 (_ bv0 256))))
 ))
 (let (($x9503 (= ?x10069 0)))
 (let (($x5167 (not $x57)))
 (let (($x8707 (= (stack_s x_0 x_1 x_2 0 (_ bv2 6)) x_2)))
 (let (($x343 (= (stack_s x_0 x_1 x_2 0 (_ bv1 6)) x_1)))
 (let (($x10004 (= (stack_s x_0 x_1 x_2 0 (_ bv0 6)) x_0)))
 (let (($x5315 (= ?x72 (_ bv3 6))))
 (and $x5315 $x10004 $x343 $x8707 $x5167 $x9503 $x9516 (= ?x3110 ?x8662) (= (stack_s x_0 x_1 x_2 1 ?x6241) ?x8662) $x4710 $x7759 (= (used_gas_s x_0 x_1 x_2 1) (+ 3 ?x10069)) $x7749 $x6792 $x1596 (= $x189 (or $x57 $x2693 (not (bvsle (_ bv0 6) ?x6241)))) $x11049 (= ?x566 (+ 3 (used_gas_s x_0 x_1 x_2 1))) $x10523 $x11103 $x10998 $x3125 (= (stack_s x_0 x_1 x_2 3 (bvadd (_ bv63 6) ?x275)) ?x50) (= (stack_s x_0 x_1 x_2 3 ?x1775) ?x50) $x10822 (= (stack_s x_0 x_1 x_2 3 ?x5148) ?x10383) (= ?x1882 (+ 3 ?x566)) $x2652 $x9180 $x9785 (= $x292 (or $x247 (not (bvsle (_ bv0 6) ?x1775)) $x8482)) (= ?x6990 (stack_s x_0 x_1 x_2 3 (bvadd (_ bv62 6) ?x275))) (= ?x1580 (stack_s x_0 x_1 x_2 3 (bvadd (_ bv63 6) ?x275))) (= ?x9653 (+ 3 ?x1882)) $x5056 $x8922 $x890 $x8182 $x4033 $x6329 $x3594 $x6844 $x4591 $x1289 (= (stack_t x_0 x_1 x_2 1 (bvadd (_ bv63 6) ?x6052)) ?x6794) (= (stack_t x_0 x_1 x_2 1 ?x2447) ?x6794) $x7276 $x25 (= (used_gas_t x_0 x_1 x_2 1) (+ 3 ?x28)) $x4139 $x439 $x5419 (= $x3120 (or $x56 (not (bvsle (_ bv0 6) ?x2447)) $x6067)) $x9687 (= ?x11507 (+ 3 (used_gas_t x_0 x_1 x_2 1))) (= ?x2714 ?x6052) $x3167 $x8043 $x10333 (= (stack_t x_0 x_1 x_2 3 (bvadd (_ bv63 6) ?x6011)) ?x2957) $x8374 $x2790 $x3287 $x4460 $x6746 $x73 $x289 $x58 $x2734 $x2569 (not (and $x6835 $x11014 $x8098 $x11638))))))))))))))))))))))))))))))))))))))))))))))))))))))))))))))))))))))))))))))))))))))))))))))))))))))))
 )
(check-sat)
(get-proof)
